(declare-fun b21 () (_ FloatingPoint 8 24))
(declare-fun b18 () (_ FloatingPoint 8 24))
(declare-fun b8 () (_ FloatingPoint 8 24))
(declare-fun b13 () (_ FloatingPoint 11 53))
(assert (let ((.def_19 (fp.leq b21 b8)))
(let ((.def_12 (fp.mul RNE b8 b8)))
(let ((.def_13 (fp.add RNE b8 .def_12)))
(let ((.def_14 ((_ to_fp 11 53) RNE .def_13)))
(let ((.def_16 (fp.lt .def_14 b13)))
(let ((.def_11 (fp.leq b8 b18)))
(let ((.def_17 (and .def_11 .def_16)))
(let ((.def_20 (and .def_17 .def_19)))
.def_20)))))))))
(check-sat)
